8
0 94 99 100 95 81 40 48 
94 0 76 67 87 65 77 46 
99 76 0 100 17 80 45 62 
100 67 100 0 96 72 100 87 
95 87 17 96 0 23 6 99 
81 65 80 72 23 0 50 48 
40 77 45 100 6 50 0 81 
48 46 62 87 99 48 81 0 
BRBBBRRR
